FILES = {c0, c1, c2, c3, c4, c5, c6, c7,c8};
servers = 3;

timeTo = [|15,5|10,18|15,35| 13,52|20,52|15,21|10,22|5,2|10,22|];
dependencies = [{},{},{c0},{c1},{c2},{c2,c3},{c4},{c2,c3,c5},{c1}];
deadline = [10,30,20,40,50,30,30,20,30];
